
Gurobi 9.1.2 (win64) logging started Tue Dec  7 09:20:15 2021

Gurobi Optimizer version 9.1.2 build v9.1.2rc0 (win64)
Thread count: 8 physical cores, 8 logical processors, using up to 8 threads
Optimize a model with 1 rows, 156 columns and 155 nonzeros
Model fingerprint: 0x30b58da8
Variable types: 1 continuous, 155 integer (155 binary)
Coefficient statistics:
  Matrix range     [1e+00, 1e+01]
  Objective range  [1e+00, 1e+00]
  Bounds range     [1e+02, 1e+02]
  RHS range        [1e+01, 1e+01]
Presolve time: 0.00s
Presolved: 1 rows, 156 columns, 155 nonzeros
Variable types: 1 continuous, 155 integer (155 binary)

Root simplex log...

Iteration    Objective       Primal Inf.    Dual Inf.      Time
       0   -1.3544893e+02   1.440899e-01   0.000000e+00     15s
       4   -1.3544893e+02   0.000000e+00   0.000000e+00     15s

Root relaxation: objective -1.354489e+02, 4 iterations, 0.00 seconds

    Nodes    |    Current Node    |     Objective Bounds      |     Work
 Expl Unexpl |  Obj  Depth IntInf | Incumbent    BestBd   Gap | It/Node Time

     0     0 -113.99805    0    2          - -113.99805      -     -   16s
H    0     0                       0.7160673 -113.99805      -     -   16s
H    0     0                       0.6141965 -113.99805      -     -   19s
     0     0  -59.85756    0    6    0.61420  -59.85756  9846%     -   19s
H    0     0                       0.6141965  -59.85756  9846%     -   20s
     0     0  -57.33663    0    8    0.61420  -57.33663  9435%     -   21s
     0     0  -54.26279    0    9    0.61420  -54.26279  8935%     -   21s
H    0     0                       0.6141965  -54.26279  8935%     -   22s
     0     0  -52.41047    0    8    0.61420  -52.41047  8633%     -   22s
     0     0  -49.52688    0   10    0.61420  -49.52688  8164%     -   22s
H    0     0                       0.6141965  -49.52688  8164%     -   22s
     0     0  -49.09368    0   10    0.61420  -49.09368  8093%     -   22s
     0     0  -49.04034    0    9    0.61420  -49.04034  8084%     -   22s
     0     2  -49.04034    0    9    0.61420  -49.04034  8084%     -   22s
   666   107    0.23532   21    4    0.61420   -6.99880  1240%   3.7   29s
   862    21     cutoff   31         0.61420   -5.31650   966%   3.9   30s

Cutting planes:
  MIR: 7
  Lazy constraints: 69

Explored 1033 nodes (4116 simplex iterations) in 30.51 seconds
Thread count was 8 (of 8 available processors)

Solution count 3: 0.614196 0.614196 0.716067 

Optimal solution found (tolerance 1.00e-04)
Best objective 6.141964903174e-01, best bound 6.141964903174e-01, gap 0.0000%

User-callback calls 2276, time in user-callback 34.17 sec
